32	0

0	3	2	4	5
4	2	3	6
10	2	7	9
9	1	6
6	1	6
1	2	7	9
5	2	8	10
7	1	11
7	1	10
7	1	11
8	1	12
5	1	13
6	2	14	15
2	2	16	17
2	2	16	17
8	1	18
9	1	19
1	1	19
3	3	20	21	22
10	2	23	24
5	2	23	24
2	2	23	24
4	2	25	28
7	3	26	28	29
4	2	26	29
5	1	27
3	1	30
10	1	30
10	1	30
5	1	31
4	1	32
0	0
